Academic license - for non-commercial use only - expires 2022-11-10
Using license file /home/benedond/Apps/gurobi/gurobi950/gurobi.lic
Using gurobi.env file
Set parameter Threads to value 1
Changed value of parameter TimeLimit to 300.0
   Prev: inf  Min: 0.0  Max: inf  Default: inf
Gurobi Optimizer version 9.1.2 build v9.1.2rc0 (linux64)
Thread count: 2 physical cores, 4 logical processors, using up to 1 threads
Optimize a model with 1700 rows, 840 columns and 6478 nonzeros
Model fingerprint: 0xc992a30b
Variable types: 20 continuous, 820 integer (800 binary)
Coefficient statistics:
  Matrix range     [1e-01, 6e+02]
  Objective range  [2e-03, 4e-01]
  Bounds range     [1e+00, 1e+00]
  RHS range        [1e+00, 6e+02]

---------------------------------------------------------------------------
Multi-objectives: starting optimization with 1 objectives ... 
---------------------------------------------------------------------------
---------------------------------------------------------------------------

Multi-objectives: optimize objective 1 (min avg power cons) ...
---------------------------------------------------------------------------

Optimize a model with 1700 rows, 840 columns and 6478 nonzeros
Model fingerprint: 0x8ffea71b
Variable types: 20 continuous, 820 integer (800 binary)
Coefficient statistics:
  Matrix range     [1e-01, 6e+02]
  Objective range  [2e-03, 4e-01]
  Bounds range     [1e+00, 1e+00]
  RHS range        [1e+00, 6e+02]
Presolve removed 1221 rows and 599 columns
Presolve time: 0.04s
Presolved: 479 rows, 241 columns, 1774 nonzeros
Variable types: 10 continuous, 231 integer (221 binary)

Root relaxation: objective 2.756304e+00, 124 iterations, 0.00 seconds

    Nodes    |    Current Node    |     Objective Bounds      |     Work
 Expl Unexpl |  Obj  Depth IntInf | Incumbent    BestBd   Gap | It/Node Time

     0     0    2.75630    0   48          -    2.75630      -     -    0s
H    0     0                       3.5440676    2.75630  22.2%     -    0s
     0     0    2.77673    0   57    3.54407    2.77673  21.7%     -    0s
     0     0    2.77673    0   56    3.54407    2.77673  21.7%     -    0s
     0     0    2.85617    0   64    3.54407    2.85617  19.4%     -    0s
     0     0    2.85777    0   55    3.54407    2.85777  19.4%     -    0s
     0     0    2.87311    0   62    3.54407    2.87311  18.9%     -    0s
H    0     0                       3.4693594    2.87311  17.2%     -    0s
H    0     0                       3.4482049    2.87311  16.7%     -    0s
     0     0    2.87457    0   65    3.44820    2.87457  16.6%     -    0s
     0     0    2.88064    0   58    3.44820    2.88064  16.5%     -    0s
     0     0    2.88076    0   53    3.44820    2.88076  16.5%     -    0s
     0     0    2.88173    0   57    3.44820    2.88173  16.4%     -    0s
     0     0    2.88173    0   56    3.44820    2.88173  16.4%     -    0s
     0     0    2.88217    0   67    3.44820    2.88217  16.4%     -    0s
     0     0    2.88242    0   71    3.44820    2.88242  16.4%     -    0s
     0     0    2.88283    0   69    3.44820    2.88283  16.4%     -    0s
H    0     0                       3.4353456    2.88283  16.1%     -    0s
     0     0    2.88283    0   59    3.43535    2.88283  16.1%     -    0s
     0     0    2.88285    0   69    3.43535    2.88285  16.1%     -    0s
     0     0    2.88285    0   69    3.43535    2.88285  16.1%     -    0s
     0     0    2.88302    0   68    3.43535    2.88302  16.1%     -    0s
     0     0    2.88302    0   65    3.43535    2.88302  16.1%     -    0s
H    0     0                       3.4097259    2.88302  15.4%     -    0s
H    0     0                       3.3236740    2.88302  13.3%     -    0s
H    0     0                       3.2313524    2.88312  10.8%     -    0s
     0     2    2.88354    0   65    3.23135    2.88354  10.8%     -    0s
H  158    67                       3.2280930    2.93869  8.97%  19.2    0s
H  459   176                       3.2264187    2.96242  8.18%  16.2    0s
H  472   180                       3.2262554    2.96242  8.18%  16.3    0s
H  513   190                       3.2192727    2.96463  7.91%  16.2    0s
H 1177   422                       3.2175170    2.98427  7.25%  17.4    1s
H 1233   414                       3.2116763    2.98427  7.08%  17.4    1s
H 1302   407                       3.2099922    2.98427  7.03%  17.2    1s
H 1318   382                       3.2080370    2.98427  6.98%  17.1    1s
H 1345   358                       3.2074667    2.98427  6.96%  17.1    1s
H 1427   353                       3.2069080    2.98427  6.94%  17.0    1s
H 1456   328                       3.2050351    2.98427  6.89%  17.0    1s
H 1484   310                       3.2044499    2.98427  6.87%  17.1    1s
H 1597   296                       3.2038646    2.98427  6.85%  17.2    2s
H 2034   367                       3.1989244    3.00626  6.02%  17.6    2s
* 2781   474              32       3.1970066    3.04282  4.82%  18.1    3s
  5195   575    3.11611   28   48    3.19701    3.11476  2.57%  17.1    5s

Cutting planes:
  Gomory: 7
  Cover: 26
  Implied bound: 25
  Projected implied bound: 16
  Clique: 2
  MIR: 53
  StrongCG: 2
  Flow cover: 127
  GUB cover: 12
  Mod-K: 3
  RLT: 11
  Relax-and-lift: 34

Explored 7942 nodes (121755 simplex iterations) in 6.86 seconds
Thread count was 1 (of 4 available processors)

Solution count 10: 3.19701 3.19892 3.20386 ... 3.21168

Optimal solution found (tolerance 1.00e-04)
Best objective 3.197006565286e+00, best bound 3.197006565286e+00, gap 0.0000%

---------------------------------------------------------------------------
Multi-objectives: solved in 6.86 seconds, solution count 10

